[VALIDATOR STDOUT]
Checking plan: /home/jfan5/Safety-gen/runs/benchmark/optic/delivery_20260201_172908/delivery/optic_results/delivery_size44_packages1_seed44001.plan
Plan executed successfully - checking goal
Plan valid
Final value: 349 

Successful plans:
Value: 349
 /home/jfan5/Safety-gen/runs/benchmark/optic/delivery_20260201_172908/delivery/optic_results/delivery_size44_packages1_seed44001.plan 349
